NAME: instance_2990
TYPE: TSP
DIMENSION: 20
EDGE_WEIGHT_TYPE: EUC_2D
NODE_COORD_SECTION
0 64.38 63.59
1 30.77 53.98
2 71.09 70.80
3 95.02 20.11
4 99.06 27.16
5 78.50 65.46
6 39.98 29.30
7 99.72 89.38
8 21.59 22.89
9 13.39 16.00
10 26.19 42.76
11 46.75 35.45
12 4.73 85.97
13 66.42 7.20
14 67.30 44.10
15 6.53 85.56
16 60.26 48.79
17 10.27 32.69
18 26.26 68.41
19 36.50 7.12
EOF
